p cnf 80 1240
-21 -22 0
-21 -23 0
-21 -24 0
-21 -25 0
-21 -26 0
-21 -27 0
-21 -28 0
-21 -29 0
-21 -30 0
-21 -31 0
-21 -32 0
-21 -33 0
-21 -34 0
-21 -35 0
-21 -36 0
-21 -37 0
-21 -38 0
-21 -39 0
-21 -40 0
-22 -23 0
-22 -24 0
-22 -25 0
-22 -26 0
-22 -27 0
-22 -28 0
-22 -29 0
-22 -30 0
-22 -31 0
-22 -32 0
-22 -33 0
-22 -34 0
-22 -35 0
-22 -36 0
-22 -37 0
-22 -38 0
-22 -39 0
-22 -40 0
-23 -24 0
-23 -25 0
-23 -26 0
-23 -27 0
-23 -28 0
-23 -29 0
-23 -30 0
-23 -31 0
-23 -32 0
-23 -33 0
-23 -34 0
-23 -35 0
-23 -36 0
-23 -37 0
-23 -38 0
-23 -39 0
-23 -40 0
-24 -25 0
-24 -26 0
-24 -27 0
-24 -28 0
-24 -29 0
-24 -30 0
-24 -31 0
-24 -32 0
-24 -33 0
-24 -34 0
-24 -35 0
-24 -36 0
-24 -37 0
-24 -38 0
-24 -39 0
-24 -40 0
-25 -26 0
-25 -27 0
-25 -28 0
-25 -29 0
-25 -30 0
-25 -31 0
-25 -32 0
-25 -33 0
-25 -34 0
-25 -35 0
-25 -36 0
-25 -37 0
-25 -38 0
-25 -39 0
-25 -40 0
-26 -27 0
-26 -28 0
-26 -29 0
-26 -30 0
-26 -31 0
-26 -32 0
-26 -33 0
-26 -34 0
-26 -35 0
-26 -36 0
-26 -37 0
-26 -38 0
-26 -39 0
-26 -40 0
-27 -28 0
-27 -29 0
-27 -30 0
-27 -31 0
-27 -32 0
-27 -33 0
-27 -34 0
-27 -35 0
-27 -36 0
-27 -37 0
-27 -38 0
-27 -39 0
-27 -40 0
-28 -29 0
-28 -30 0
-28 -31 0
-28 -32 0
-28 -33 0
-28 -34 0
-28 -35 0
-28 -36 0
-28 -37 0
-28 -38 0
-28 -39 0
-28 -40 0
-29 -30 0
-29 -31 0
-29 -32 0
-29 -33 0
-29 -34 0
-29 -35 0
-29 -36 0
-29 -37 0
-29 -38 0
-29 -39 0
-29 -40 0
-30 -31 0
-30 -32 0
-30 -33 0
-30 -34 0
-30 -35 0
-30 -36 0
-30 -37 0
-30 -38 0
-30 -39 0
-30 -40 0
-31 -32 0
-31 -33 0
-31 -34 0
-31 -35 0
-31 -36 0
-31 -37 0
-31 -38 0
-31 -39 0
-31 -40 0
-32 -33 0
-32 -34 0
-32 -35 0
-32 -36 0
-32 -37 0
-32 -38 0
-32 -39 0
-32 -40 0
-33 -34 0
-33 -35 0
-33 -36 0
-33 -37 0
-33 -38 0
-33 -39 0
-33 -40 0
-34 -35 0
-34 -36 0
-34 -37 0
-34 -38 0
-34 -39 0
-34 -40 0
-35 -36 0
-35 -37 0
-35 -38 0
-35 -39 0
-35 -40 0
-36 -37 0
-36 -38 0
-36 -39 0
-36 -40 0
-37 -38 0
-37 -39 0
-37 -40 0
-38 -39 0
-38 -40 0
-39 -40 0
-41 -42 0
-41 -43 0
-41 -44 0
-41 -45 0
-41 -46 0
-41 -47 0
-41 -48 0
-41 -49 0
-41 -50 0
-41 -51 0
-41 -52 0
-41 -53 0
-41 -54 0
-41 -55 0
-41 -56 0
-41 -57 0
-41 -58 0
-41 -59 0
-41 -60 0
-42 -43 0
-42 -44 0
-42 -45 0
-42 -46 0
-42 -47 0
-42 -48 0
-42 -49 0
-42 -50 0
-42 -51 0
-42 -52 0
-42 -53 0
-42 -54 0
-42 -55 0
-42 -56 0
-42 -57 0
-42 -58 0
-42 -59 0
-42 -60 0
-43 -44 0
-43 -45 0
-43 -46 0
-43 -47 0
-43 -48 0
-43 -49 0
-43 -50 0
-43 -51 0
-43 -52 0
-43 -53 0
-43 -54 0
-43 -55 0
-43 -56 0
-43 -57 0
-43 -58 0
-43 -59 0
-43 -60 0
-44 -45 0
-44 -46 0
-44 -47 0
-44 -48 0
-44 -49 0
-44 -50 0
-44 -51 0
-44 -52 0
-44 -53 0
-44 -54 0
-44 -55 0
-44 -56 0
-44 -57 0
-44 -58 0
-44 -59 0
-44 -60 0
-45 -46 0
-45 -47 0
-45 -48 0
-45 -49 0
-45 -50 0
-45 -51 0
-45 -52 0
-45 -53 0
-45 -54 0
-45 -55 0
-45 -56 0
-45 -57 0
-45 -58 0
-45 -59 0
-45 -60 0
-46 -47 0
-46 -48 0
-46 -49 0
-46 -50 0
-46 -51 0
-46 -52 0
-46 -53 0
-46 -54 0
-46 -55 0
-46 -56 0
-46 -57 0
-46 -58 0
-46 -59 0
-46 -60 0
-47 -48 0
-47 -49 0
-47 -50 0
-47 -51 0
-47 -52 0
-47 -53 0
-47 -54 0
-47 -55 0
-47 -56 0
-47 -57 0
-47 -58 0
-47 -59 0
-47 -60 0
-48 -49 0
-48 -50 0
-48 -51 0
-48 -52 0
-48 -53 0
-48 -54 0
-48 -55 0
-48 -56 0
-48 -57 0
-48 -58 0
-48 -59 0
-48 -60 0
-49 -50 0
-49 -51 0
-49 -52 0
-49 -53 0
-49 -54 0
-49 -55 0
-49 -56 0
-49 -57 0
-49 -58 0
-49 -59 0
-49 -60 0
-50 -51 0
-50 -52 0
-50 -53 0
-50 -54 0
-50 -55 0
-50 -56 0
-50 -57 0
-50 -58 0
-50 -59 0
-50 -60 0
-51 -52 0
-51 -53 0
-51 -54 0
-51 -55 0
-51 -56 0
-51 -57 0
-51 -58 0
-51 -59 0
-51 -60 0
-52 -53 0
-52 -54 0
-52 -55 0
-52 -56 0
-52 -57 0
-52 -58 0
-52 -59 0
-52 -60 0
-53 -54 0
-53 -55 0
-53 -56 0
-53 -57 0
-53 -58 0
-53 -59 0
-53 -60 0
-54 -55 0
-54 -56 0
-54 -57 0
-54 -58 0
-54 -59 0
-54 -60 0
-55 -56 0
-55 -57 0
-55 -58 0
-55 -59 0
-55 -60 0
-56 -57 0
-56 -58 0
-56 -59 0
-56 -60 0
-57 -58 0
-57 -59 0
-57 -60 0
-58 -59 0
-58 -60 0
-59 -60 0
-61 -62 0
-61 -63 0
-61 -64 0
-61 -65 0
-61 -66 0
-61 -67 0
-61 -68 0
-61 -69 0
-61 -70 0
-61 -71 0
-61 -72 0
-61 -73 0
-61 -74 0
-61 -75 0
-61 -76 0
-61 -77 0
-61 -78 0
-61 -79 0
-61 -80 0
-62 -63 0
-62 -64 0
-62 -65 0
-62 -66 0
-62 -67 0
-62 -68 0
-62 -69 0
-62 -70 0
-62 -71 0
-62 -72 0
-62 -73 0
-62 -74 0
-62 -75 0
-62 -76 0
-62 -77 0
-62 -78 0
-62 -79 0
-62 -80 0
-63 -64 0
-63 -65 0
-63 -66 0
-63 -67 0
-63 -68 0
-63 -69 0
-63 -70 0
-63 -71 0
-63 -72 0
-63 -73 0
-63 -74 0
-63 -75 0
-63 -76 0
-63 -77 0
-63 -78 0
-63 -79 0
-63 -80 0
-64 -65 0
-64 -66 0
-64 -67 0
-64 -68 0
-64 -69 0
-64 -70 0
-64 -71 0
-64 -72 0
-64 -73 0
-64 -74 0
-64 -75 0
-64 -76 0
-64 -77 0
-64 -78 0
-64 -79 0
-64 -80 0
-65 -66 0
-65 -67 0
-65 -68 0
-65 -69 0
-65 -70 0
-65 -71 0
-65 -72 0
-65 -73 0
-65 -74 0
-65 -75 0
-65 -76 0
-65 -77 0
-65 -78 0
-65 -79 0
-65 -80 0
-66 -67 0
-66 -68 0
-66 -69 0
-66 -70 0
-66 -71 0
-66 -72 0
-66 -73 0
-66 -74 0
-66 -75 0
-66 -76 0
-66 -77 0
-66 -78 0
-66 -79 0
-66 -80 0
-67 -68 0
-67 -69 0
-67 -70 0
-67 -71 0
-67 -72 0
-67 -73 0
-67 -74 0
-67 -75 0
-67 -76 0
-67 -77 0
-67 -78 0
-67 -79 0
-67 -80 0
-68 -69 0
-68 -70 0
-68 -71 0
-68 -72 0
-68 -73 0
-68 -74 0
-68 -75 0
-68 -76 0
-68 -77 0
-68 -78 0
-68 -79 0
-68 -80 0
-69 -70 0
-69 -71 0
-69 -72 0
-69 -73 0
-69 -74 0
-69 -75 0
-69 -76 0
-69 -77 0
-69 -78 0
-69 -79 0
-69 -80 0
-70 -71 0
-70 -72 0
-70 -73 0
-70 -74 0
-70 -75 0
-70 -76 0
-70 -77 0
-70 -78 0
-70 -79 0
-70 -80 0
-71 -72 0
-71 -73 0
-71 -74 0
-71 -75 0
-71 -76 0
-71 -77 0
-71 -78 0
-71 -79 0
-71 -80 0
-72 -73 0
-72 -74 0
-72 -75 0
-72 -76 0
-72 -77 0
-72 -78 0
-72 -79 0
-72 -80 0
-73 -74 0
-73 -75 0
-73 -76 0
-73 -77 0
-73 -78 0
-73 -79 0
-73 -80 0
-74 -75 0
-74 -76 0
-74 -77 0
-74 -78 0
-74 -79 0
-74 -80 0
-75 -76 0
-75 -77 0
-75 -78 0
-75 -79 0
-75 -80 0
-76 -77 0
-76 -78 0
-76 -79 0
-76 -80 0
-77 -78 0
-77 -79 0
-77 -80 0
-78 -79 0
-78 -80 0
-79 -80 0
-22 -41 0
-23 -41 0
-24 -41 0
-25 -41 0
-26 -41 0
-27 -41 0
-28 -41 0
-29 -41 0
-30 -41 0
-31 -41 0
-32 -41 0
-33 -41 0
-34 -41 0
-35 -41 0
-36 -41 0
-37 -41 0
-38 -41 0
-39 -41 0
-40 -41 0
-23 -42 0
-24 -42 0
-25 -42 0
-26 -42 0
-27 -42 0
-28 -42 0
-29 -42 0
-30 -42 0
-31 -42 0
-32 -42 0
-33 -42 0
-34 -42 0
-35 -42 0
-36 -42 0
-37 -42 0
-38 -42 0
-39 -42 0
-40 -42 0
-24 -43 0
-25 -43 0
-26 -43 0
-27 -43 0
-28 -43 0
-29 -43 0
-30 -43 0
-31 -43 0
-32 -43 0
-33 -43 0
-34 -43 0
-35 -43 0
-36 -43 0
-37 -43 0
-38 -43 0
-39 -43 0
-40 -43 0
-25 -44 0
-26 -44 0
-27 -44 0
-28 -44 0
-29 -44 0
-30 -44 0
-31 -44 0
-32 -44 0
-33 -44 0
-34 -44 0
-35 -44 0
-36 -44 0
-37 -44 0
-38 -44 0
-39 -44 0
-40 -44 0
-26 -45 0
-27 -45 0
-28 -45 0
-29 -45 0
-30 -45 0
-31 -45 0
-32 -45 0
-33 -45 0
-34 -45 0
-35 -45 0
-36 -45 0
-37 -45 0
-38 -45 0
-39 -45 0
-40 -45 0
-27 -46 0
-28 -46 0
-29 -46 0
-30 -46 0
-31 -46 0
-32 -46 0
-33 -46 0
-34 -46 0
-35 -46 0
-36 -46 0
-37 -46 0
-38 -46 0
-39 -46 0
-40 -46 0
-28 -47 0
-29 -47 0
-30 -47 0
-31 -47 0
-32 -47 0
-33 -47 0
-34 -47 0
-35 -47 0
-36 -47 0
-37 -47 0
-38 -47 0
-39 -47 0
-40 -47 0
-29 -48 0
-30 -48 0
-31 -48 0
-32 -48 0
-33 -48 0
-34 -48 0
-35 -48 0
-36 -48 0
-37 -48 0
-38 -48 0
-39 -48 0
-40 -48 0
-30 -49 0
-31 -49 0
-32 -49 0
-33 -49 0
-34 -49 0
-35 -49 0
-36 -49 0
-37 -49 0
-38 -49 0
-39 -49 0
-40 -49 0
-31 -50 0
-32 -50 0
-33 -50 0
-34 -50 0
-35 -50 0
-36 -50 0
-37 -50 0
-38 -50 0
-39 -50 0
-40 -50 0
-32 -51 0
-33 -51 0
-34 -51 0
-35 -51 0
-36 -51 0
-37 -51 0
-38 -51 0
-39 -51 0
-40 -51 0
-33 -52 0
-34 -52 0
-35 -52 0
-36 -52 0
-37 -52 0
-38 -52 0
-39 -52 0
-40 -52 0
-34 -53 0
-35 -53 0
-36 -53 0
-37 -53 0
-38 -53 0
-39 -53 0
-40 -53 0
-35 -54 0
-36 -54 0
-37 -54 0
-38 -54 0
-39 -54 0
-40 -54 0
-36 -55 0
-37 -55 0
-38 -55 0
-39 -55 0
-40 -55 0
-37 -56 0
-38 -56 0
-39 -56 0
-40 -56 0
-38 -57 0
-39 -57 0
-40 -57 0
-39 -58 0
-40 -58 0
-40 -59 0
-22 -61 0
-23 -61 0
-24 -61 0
-25 -61 0
-26 -61 0
-27 -61 0
-28 -61 0
-29 -61 0
-30 -61 0
-31 -61 0
-32 -61 0
-33 -61 0
-34 -61 0
-35 -61 0
-36 -61 0
-37 -61 0
-38 -61 0
-39 -61 0
-40 -61 0
-23 -62 0
-24 -62 0
-25 -62 0
-26 -62 0
-27 -62 0
-28 -62 0
-29 -62 0
-30 -62 0
-31 -62 0
-32 -62 0
-33 -62 0
-34 -62 0
-35 -62 0
-36 -62 0
-37 -62 0
-38 -62 0
-39 -62 0
-40 -62 0
-24 -63 0
-25 -63 0
-26 -63 0
-27 -63 0
-28 -63 0
-29 -63 0
-30 -63 0
-31 -63 0
-32 -63 0
-33 -63 0
-34 -63 0
-35 -63 0
-36 -63 0
-37 -63 0
-38 -63 0
-39 -63 0
-40 -63 0
-25 -64 0
-26 -64 0
-27 -64 0
-28 -64 0
-29 -64 0
-30 -64 0
-31 -64 0
-32 -64 0
-33 -64 0
-34 -64 0
-35 -64 0
-36 -64 0
-37 -64 0
-38 -64 0
-39 -64 0
-40 -64 0
-26 -65 0
-27 -65 0
-28 -65 0
-29 -65 0
-30 -65 0
-31 -65 0
-32 -65 0
-33 -65 0
-34 -65 0
-35 -65 0
-36 -65 0
-37 -65 0
-38 -65 0
-39 -65 0
-40 -65 0
-27 -66 0
-28 -66 0
-29 -66 0
-30 -66 0
-31 -66 0
-32 -66 0
-33 -66 0
-34 -66 0
-35 -66 0
-36 -66 0
-37 -66 0
-38 -66 0
-39 -66 0
-40 -66 0
-28 -67 0
-29 -67 0
-30 -67 0
-31 -67 0
-32 -67 0
-33 -67 0
-34 -67 0
-35 -67 0
-36 -67 0
-37 -67 0
-38 -67 0
-39 -67 0
-40 -67 0
-29 -68 0
-30 -68 0
-31 -68 0
-32 -68 0
-33 -68 0
-34 -68 0
-35 -68 0
-36 -68 0
-37 -68 0
-38 -68 0
-39 -68 0
-40 -68 0
-30 -69 0
-31 -69 0
-32 -69 0
-33 -69 0
-34 -69 0
-35 -69 0
-36 -69 0
-37 -69 0
-38 -69 0
-39 -69 0
-40 -69 0
-31 -70 0
-32 -70 0
-33 -70 0
-34 -70 0
-35 -70 0
-36 -70 0
-37 -70 0
-38 -70 0
-39 -70 0
-40 -70 0
-32 -71 0
-33 -71 0
-34 -71 0
-35 -71 0
-36 -71 0
-37 -71 0
-38 -71 0
-39 -71 0
-40 -71 0
-33 -72 0
-34 -72 0
-35 -72 0
-36 -72 0
-37 -72 0
-38 -72 0
-39 -72 0
-40 -72 0
-34 -73 0
-35 -73 0
-36 -73 0
-37 -73 0
-38 -73 0
-39 -73 0
-40 -73 0
-35 -74 0
-36 -74 0
-37 -74 0
-38 -74 0
-39 -74 0
-40 -74 0
-36 -75 0
-37 -75 0
-38 -75 0
-39 -75 0
-40 -75 0
-37 -76 0
-38 -76 0
-39 -76 0
-40 -76 0
-38 -77 0
-39 -77 0
-40 -77 0
-39 -78 0
-40 -78 0
-40 -79 0
-42 -61 0
-43 -61 0
-44 -61 0
-45 -61 0
-46 -61 0
-47 -61 0
-48 -61 0
-49 -61 0
-50 -61 0
-51 -61 0
-52 -61 0
-53 -61 0
-54 -61 0
-55 -61 0
-56 -61 0
-57 -61 0
-58 -61 0
-59 -61 0
-60 -61 0
-43 -62 0
-44 -62 0
-45 -62 0
-46 -62 0
-47 -62 0
-48 -62 0
-49 -62 0
-50 -62 0
-51 -62 0
-52 -62 0
-53 -62 0
-54 -62 0
-55 -62 0
-56 -62 0
-57 -62 0
-58 -62 0
-59 -62 0
-60 -62 0
-44 -63 0
-45 -63 0
-46 -63 0
-47 -63 0
-48 -63 0
-49 -63 0
-50 -63 0
-51 -63 0
-52 -63 0
-53 -63 0
-54 -63 0
-55 -63 0
-56 -63 0
-57 -63 0
-58 -63 0
-59 -63 0
-60 -63 0
-45 -64 0
-46 -64 0
-47 -64 0
-48 -64 0
-49 -64 0
-50 -64 0
-51 -64 0
-52 -64 0
-53 -64 0
-54 -64 0
-55 -64 0
-56 -64 0
-57 -64 0
-58 -64 0
-59 -64 0
-60 -64 0
-46 -65 0
-47 -65 0
-48 -65 0
-49 -65 0
-50 -65 0
-51 -65 0
-52 -65 0
-53 -65 0
-54 -65 0
-55 -65 0
-56 -65 0
-57 -65 0
-58 -65 0
-59 -65 0
-60 -65 0
-47 -66 0
-48 -66 0
-49 -66 0
-50 -66 0
-51 -66 0
-52 -66 0
-53 -66 0
-54 -66 0
-55 -66 0
-56 -66 0
-57 -66 0
-58 -66 0
-59 -66 0
-60 -66 0
-48 -67 0
-49 -67 0
-50 -67 0
-51 -67 0
-52 -67 0
-53 -67 0
-54 -67 0
-55 -67 0
-56 -67 0
-57 -67 0
-58 -67 0
-59 -67 0
-60 -67 0
-49 -68 0
-50 -68 0
-51 -68 0
-52 -68 0
-53 -68 0
-54 -68 0
-55 -68 0
-56 -68 0
-57 -68 0
-58 -68 0
-59 -68 0
-60 -68 0
-50 -69 0
-51 -69 0
-52 -69 0
-53 -69 0
-54 -69 0
-55 -69 0
-56 -69 0
-57 -69 0
-58 -69 0
-59 -69 0
-60 -69 0
-51 -70 0
-52 -70 0
-53 -70 0
-54 -70 0
-55 -70 0
-56 -70 0
-57 -70 0
-58 -70 0
-59 -70 0
-60 -70 0
-52 -71 0
-53 -71 0
-54 -71 0
-55 -71 0
-56 -71 0
-57 -71 0
-58 -71 0
-59 -71 0
-60 -71 0
-53 -72 0
-54 -72 0
-55 -72 0
-56 -72 0
-57 -72 0
-58 -72 0
-59 -72 0
-60 -72 0
-54 -73 0
-55 -73 0
-56 -73 0
-57 -73 0
-58 -73 0
-59 -73 0
-60 -73 0
-55 -74 0
-56 -74 0
-57 -74 0
-58 -74 0
-59 -74 0
-60 -74 0
-56 -75 0
-57 -75 0
-58 -75 0
-59 -75 0
-60 -75 0
-57 -76 0
-58 -76 0
-59 -76 0
-60 -76 0
-58 -77 0
-59 -77 0
-60 -77 0
-59 -78 0
-60 -78 0
-60 -79 0
-21 1 0
-22 2 0
-23 3 0
-24 4 0
-25 5 0
-26 6 0
-27 7 0
-28 8 0
-29 9 0
-30 10 0
-31 11 0
-32 12 0
-33 13 0
-34 14 0
-35 15 0
-36 16 0
-37 17 0
-38 18 0
-39 19 0
-40 20 0
-41 1 0
-42 2 0
-43 3 0
-44 4 0
-45 5 0
-46 6 0
-47 7 0
-48 8 0
-49 9 0
-50 10 0
-51 11 0
-52 12 0
-53 13 0
-54 14 0
-55 15 0
-56 16 0
-57 17 0
-58 18 0
-59 19 0
-60 20 0
-61 1 0
-62 2 0
-63 3 0
-64 4 0
-65 5 0
-66 6 0
-67 7 0
-68 8 0
-69 9 0
-70 10 0
-71 11 0
-72 12 0
-73 13 0
-74 14 0
-75 15 0
-76 16 0
-77 17 0
-78 18 0
-79 19 0
-80 20 0
-1 21 41 61 0
-2 22 42 62 0
-3 23 43 63 0
-4 24 44 64 0
-5 25 45 65 0
-6 26 46 66 0
-7 27 47 67 0
-8 28 48 68 0
-9 29 49 69 0
-10 30 50 70 0
-11 31 51 71 0
-12 32 52 72 0
-13 33 53 73 0
-14 34 54 74 0
-15 35 55 75 0
-16 36 56 76 0
-17 37 57 77 0
-18 38 58 78 0
-19 39 59 79 0
-20 40 60 80 0
1 2 3 4 7 13 15 16 17 20 0
1 2 3 5 16 17 20 0
1 2 4 7 10 14 15 16 20 0
1 2 6 10 11 12 15 16 17 20 0
1 3 4 5 6 8 13 18 20 0
1 7 8 13 15 17 20 0
1 7 8 15 16 20 0
1 8 9 10 14 0
1 10 14 16 17 19 0
2 3 4 9 11 17 20 0
2 3 7 10 12 16 17 20 0
2 4 5 8 9 11 13 0
3 5 6 9 14 18 19 0
3 5 8 11 12 13 16 0
4 5 7 8 11 14 15 18 0
4 5 7 11 13 18 19 20 0
4 6 8 9 13 18 19 0
4 6 9 16 18 0
9 10 12 13 18 19 0
11 12 16 17 19 0
